DIMENSION :8
NODE_COORD_SECTION
1 33.50195444030936 -84.17030023533063
2 -29.276987880815682 51.663134864317385
3 -98.04491105222415 -44.45819922626748
4 18.98617318332525 -56.75083763852993
5 -37.27827292712285 3.9811151013118433
6 -30.856501304664903 92.71310701231096
7 -0.8365294816743187 -3.1720043867121035
8 -82.87235312054177 48.345470663578794
EOF
